100
100
3000 3000 3000 3000 3000 3000 3000 3000 3000 3000 3000 3000 3000 3000 3000 3000 3000 3000 3000 3000 3000 3000 3000 3000 3000 3000 3000 3000 3000 3000 3000 3000 3000 3000 3000 3000 3000 3000 3000 3000 3000 3000 3000 3000 3000 3000 3000 3000 3000 3000 3000 3000 3000 3000 3000 3000 3000 3000 3000 3000 3000 3000 3000 3000 3000 3000 3000 3000 3000 3000 3000 3000 3000 3000 3000 3000 3000 3000 3000 3000 3000 3000 3000 3000 3000 3000 3000 3000 3000 3000 3000 3000 3000 3000 3000 3000 3000 3000 3000 3000
0 6 4
0 8 3
0 16 3
0 36 0
0 40 1
0 48 3
0 54 2
0 55 4
0 56 0
0 58 1
1 2 1
1 3 3
1 8 4
1 11 2
1 45 3
1 46 2
1 47 1
1 51 2
1 64 0
1 75 3
2 12 0
2 15 2
2 18 1
2 28 1
2 48 0
2 52 0
2 62 1
2 71 4
2 77 4
2 78 3
3 4 3
3 7 1
3 12 4
3 37 2
3 39 4
3 52 1
3 67 1
3 68 0
3 77 3
3 81 4
4 30 1
4 33 2
4 38 3
4 43 4
4 46 4
4 52 1
4 59 2
4 63 3
4 65 1
4 71 2
5 16 3
5 22 3
5 43 1
5 62 4
5 72 4
5 74 4
5 76 4
5 81 1
5 92 3
5 98 2
6 25 0
6 27 3
6 32 4
6 49 2
6 55 1
6 78 4
6 89 0
6 91 0
6 95 3
6 96 3
7 4 2
7 13 0
7 14 2
7 35 1
7 55 0
7 63 0
7 64 1
7 67 1
7 71 0
7 75 4
8 4 4
8 8 4
8 23 1
8 49 1
8 50 4
8 56 3
8 73 4
8 85 4
8 87 3
8 89 3
9 22 3
9 25 1
9 61 0
9 76 1
9 80 0
9 91 1
9 93 2
9 97 0
9 98 1
9 99 1
10 11 4
10 35 1
10 36 3
10 48 2
10 61 2
10 73 1
10 80 3
10 82 4
10 87 1
10 89 3
11 0 3
11 13 2
11 15 2
11 16 1
11 28 3
11 50 0
11 60 0
11 72 2
11 90 2
11 93 1
12 0 2
12 9 0
12 10 0
12 17 2
12 33 4
12 44 1
12 58 0
12 60 3
12 61 0
12 67 3
13 12 2
13 20 1
13 21 1
13 38 0
13 41 4
13 56 0
13 68 0
13 85 2
13 87 2
13 88 0
14 1 1
14 4 2
14 30 2
14 42 1
14 57 1
14 67 0
14 90 4
14 92 1
14 94 4
14 95 3
15 0 3
15 7 1
15 18 2
15 23 0
15 40 4
15 41 3
15 54 3
15 66 4
15 76 0
15 79 1
16 10 1
16 14 2
16 15 1
16 25 3
16 33 3
16 43 1
16 45 4
16 68 3
16 84 3
16 88 1
17 5 1
17 16 2
17 18 0
17 22 2
17 50 1
17 61 0
17 70 1
17 80 0
17 81 3
17 88 2
18 23 3
18 24 2
18 27 4
18 33 1
18 40 2
18 41 1
18 66 3
18 77 3
18 79 4
18 86 3
19 2 0
19 8 0
19 14 0
19 18 3
19 24 2
19 26 0
19 29 2
19 32 4
19 35 0
19 43 1
20 1 3
20 6 2
20 16 3
20 23 3
20 31 1
20 42 4
20 43 0
20 44 2
20 53 2
20 55 0
21 3 1
21 17 4
21 20 1
21 21 4
21 29 3
21 54 0
21 57 0
21 63 0
21 64 3
21 69 0
22 4 1
22 20 3
22 40 3
22 50 2
22 56 4
22 63 0
22 77 1
22 82 0
22 83 1
22 87 1
23 4 2
23 5 3
23 17 2
23 28 1
23 33 4
23 34 4
23 40 3
23 52 0
23 54 1
23 63 3
24 13 3
24 15 4
24 17 1
24 19 0
24 27 4
24 29 2
24 52 4
24 61 0
24 72 2
24 81 4
25 19 3
25 24 3
25 25 3
25 35 4
25 37 2
25 59 0
25 65 0
25 78 1
25 83 3
25 84 3
26 1 1
26 5 0
26 18 0
26 22 2
26 31 3
26 43 3
26 68 1
26 69 3
26 75 4
26 82 3
27 5 2
27 11 3
27 31 4
27 37 2
27 44 0
27 66 3
27 89 3
27 92 3
27 96 0
27 97 1
28 4 0
28 9 3
28 15 2
28 23 0
28 89 2
28 94 0
28 96 0
28 97 2
28 98 3
28 99 1
29 2 4
29 15 1
29 21 0
29 38 4
29 39 2
29 40 0
29 52 1
29 58 4
29 61 0
29 67 4
30 3 2
30 52 0
30 57 4
30 65 4
30 67 4
30 68 0
30 77 3
30 85 1
30 89 4
30 92 3
31 11 0
31 31 0
31 38 4
31 53 0
31 62 0
31 65 4
31 83 1
31 86 1
31 90 0
31 97 0
32 1 4
32 13 0
32 14 4
32 19 0
32 26 3
32 30 4
32 36 3
32 37 4
32 51 3
32 54 1
33 1 4
33 8 2
33 11 1
33 38 4
33 62 0
33 70 3
33 71 4
33 77 4
33 81 1
33 84 3
34 8 3
34 10 3
34 24 3
34 41 1
34 51 2
34 53 0
34 54 4
34 56 3
34 62 1
34 66 1
35 7 1
35 14 4
35 28 4
35 31 1
35 39 2
35 45 3
35 56 1
35 62 0
35 74 2
35 75 0
36 2 1
36 6 1
36 11 0
36 22 4
36 28 1
36 37 1
36 45 0
36 46 0
36 47 4
36 49 2
37 0 3
37 14 0
37 30 0
37 31 4
37 37 0
37 45 2
37 83 0
37 84 4
37 86 2
37 88 4
38 9 3
38 19 2
38 37 1
38 40 4
38 42 3
38 46 0
38 48 4
38 58 0
38 59 0
38 65 2
39 2 4
39 8 2
39 10 3
39 18 4
39 34 1
39 48 4
39 51 2
39 60 2
39 64 2
39 71 3
40 0 0
40 17 1
40 38 1
40 72 1
40 88 3
40 91 2
40 95 4
40 97 4
40 98 0
40 99 0
41 3 4
41 16 2
41 20 3
41 21 3
41 27 3
41 29 1
41 43 4
41 44 0
41 47 3
41 49 4
42 2 4
42 6 1
42 13 1
42 30 3
42 42 4
42 48 2
42 56 3
42 70 4
42 72 4
42 74 1
43 1 0
43 5 3
43 8 1
43 11 1
43 16 0
43 19 3
43 44 0
43 71 2
43 77 3
43 82 0
44 22 0
44 34 0
44 55 0
44 70 2
44 83 2
44 91 3
44 94 3
44 95 3
44 97 1
44 98 3
45 12 4
45 28 2
45 32 2
45 45 4
45 57 2
45 66 0
45 76 4
45 77 2
45 78 1
45 87 2
46 6 4
46 9 1
46 22 0
46 26 4
46 27 2
46 30 2
46 35 3
46 39 3
46 70 4
46 73 4
47 0 0
47 11 3
47 13 2
47 14 4
47 21 0
47 31 3
47 57 3
47 60 3
47 66 1
47 77 0
48 54 1
48 55 1
48 58 0
48 59 0
48 76 2
48 79 1
48 83 4
48 86 3
48 91 1
48 92 4
49 3 1
49 7 3
49 25 1
49 28 3
49 39 1
49 47 1
49 78 0
49 79 3
49 85 3
49 90 1
50 9 3
50 10 1
50 17 3
50 18 2
50 24 2
50 32 1
50 33 2
50 34 2
50 50 1
50 64 2
51 0 3
51 3 3
51 9 1
51 23 0
51 24 0
51 25 2
51 36 3
51 48 2
51 53 2
51 54 1
52 2 2
52 12 1
52 18 4
52 27 4
52 51 4
52 64 2
52 72 1
52 76 3
52 94 1
52 95 0
53 25 1
53 28 2
53 35 3
53 39 4
53 54 4
53 72 0
53 83 1
53 84 3
53 90 0
53 92 4
54 3 4
54 10 1
54 18 0
54 26 3
54 32 0
54 42 0
54 47 2
54 48 4
54 50 2
54 69 3
55 2 2
55 10 2
55 11 3
55 13 3
55 16 0
55 41 4
55 59 0
55 60 3
55 62 4
55 69 1
56 7 3
56 17 2
56 42 4
56 55 1
56 56 0
56 70 0
56 84 0
56 85 4
56 89 4
56 93 2
57 5 0
57 29 3
57 37 0
57 65 3
57 73 1
57 83 0
57 85 2
57 91 0
57 96 3
57 97 4
58 10 3
58 15 0
58 16 0
58 43 4
58 45 4
58 63 2
58 64 0
58 66 4
58 72 0
58 87 3
59 10 4
59 21 3
59 24 0
59 46 1
59 47 2
59 53 0
59 54 2
59 80 4
59 82 4
59 83 1
60 6 0
60 14 1
60 21 0
60 25 0
60 31 0
60 49 4
60 57 2
60 73 1
60 76 2
60 90 4
61 7 3
61 17 4
61 53 2
61 55 4
61 60 3
61 63 1
61 64 2
61 67 1
61 71 3
61 82 0
62 0 4
62 13 2
62 17 1
62 19 3
62 26 0
62 79 1
62 80 2
62 86 2
62 90 4
62 93 3
63 13 3
63 17 2
63 38 3
63 41 1
63 55 1
63 65 1
63 69 0
63 74 3
63 79 3
63 86 1
64 46 0
64 48 4
64 51 1
64 59 0
64 74 0
64 81 3
64 91 1
64 94 0
64 95 3
64 99 3
65 24 0
65 27 3
65 38 3
65 46 0
65 56 1
65 70 2
65 75 0
65 80 3
65 96 0
65 99 1
66 1 3
66 23 1
66 29 0
66 34 2
66 50 4
66 59 0
66 66 1
66 68 0
66 71 0
66 82 3
67 6 0
67 12 3
67 34 2
67 44 4
67 46 2
67 48 0
67 63 0
67 69 1
67 89 0
67 96 0
68 11 3
68 20 1
68 45 1
68 52 3
68 61 4
68 74 4
68 81 2
68 86 0
68 89 3
68 94 0
69 15 1
69 23 0
69 24 1
69 37 3
69 62 3
69 66 4
69 73 2
69 74 4
69 82 4
69 95 2
70 6 1
70 21 3
70 36 0
70 50 2
70 58 0
70 60 1
70 61 4
70 68 1
70 75 0
70 78 2
71 1 4
71 12 2
71 36 4
71 44 0
71 47 2
71 49 2
71 52 3
71 53 2
71 58 1
71 70 1
72 5 1
72 18 3
72 35 4
72 62 4
72 84 4
72 94 1
72 95 1
72 96 1
72 98 0
72 99 1
73 22 2
73 26 2
73 33 4
73 55 0
73 79 2
73 82 2
73 84 2
73 91 2
73 92 0
73 93 4
74 2 3
74 3 4
74 7 0
74 25 2
74 31 2
74 35 4
74 38 2
74 46 1
74 47 2
74 51 1
75 22 2
75 38 4
75 64 1
75 67 2
75 74 0
75 78 0
75 80 0
75 88 4
75 90 1
75 96 0
76 3 1
76 31 1
76 57 3
76 58 2
76 67 2
76 69 2
76 93 4
76 94 0
76 98 0
76 99 2
77 7 1
77 12 2
77 19 0
77 36 2
77 42 2
77 43 1
77 58 4
77 74 3
77 86 2
77 90 1
78 4 3
78 13 4
78 27 3
78 37 3
78 43 4
78 87 0
78 96 2
78 97 0
78 98 2
78 99 1
79 5 3
79 20 0
79 32 0
79 33 3
79 34 4
79 39 3
79 40 4
79 42 1
79 57 0
79 64 4
80 8 0
80 9 1
80 23 0
80 44 3
80 53 2
80 69 3
80 70 1
80 74 4
80 91 0
80 92 1
81 20 1
81 34 1
81 47 1
81 52 0
81 73 3
81 79 4
81 80 0
81 88 4
81 92 2
81 93 4
82 6 0
82 7 1
82 8 2
82 14 4
82 35 0
82 45 4
82 51 2
82 65 2
82 68 2
82 76 4
83 12 3
83 23 0
83 26 4
83 29 2
83 32 2
83 35 3
83 50 1
83 63 2
83 65 0
83 69 1
84 2 2
84 9 4
84 27 2
84 34 0
84 36 3
84 46 1
84 49 1
84 51 1
84 72 0
84 75 3
85 0 4
85 6 2
85 7 2
85 9 3
85 21 0
85 49 4
85 51 2
85 71 1
85 76 0
85 88 3
86 28 1
86 39 3
86 50 2
86 60 4
86 76 4
86 79 3
86 93 2
86 96 4
86 98 0
86 99 1
87 4 4
87 5 0
87 20 1
87 30 2
87 32 3
87 75 3
87 82 4
87 87 3
87 90 2
87 92 0
88 1 1
88 10 1
88 15 3
88 22 2
88 29 2
88 33 1
88 40 0
88 75 1
88 86 4
88 87 4
89 42 0
89 61 0
89 63 1
89 67 1
89 78 1
89 88 1
89 89 2
89 93 0
89 94 2
89 97 0
90 12 3
90 15 2
90 32 4
90 59 0
90 62 4
90 65 0
90 69 1
90 73 1
90 84 4
90 86 4
91 42 1
91 59 4
91 61 2
91 70 2
91 71 2
91 73 1
91 77 2
91 85 2
91 93 3
91 95 4
92 4 4
92 5 2
92 26 0
92 27 0
92 36 2
92 68 0
92 80 3
92 83 2
92 84 4
92 85 3
93 3 0
93 39 0
93 41 0
93 44 1
93 47 2
93 53 2
93 56 2
93 78 3
93 85 1
93 87 2
94 25 1
94 28 3
94 29 1
94 30 0
94 34 3
94 36 4
94 39 1
94 45 3
94 57 2
94 60 2
95 9 1
95 19 3
95 20 4
95 32 0
95 73 2
95 80 0
95 81 2
95 88 0
95 94 2
95 95 1
96 20 0
96 29 2
96 40 4
96 41 2
96 60 1
96 72 0
96 91 4
96 97 1
96 98 4
96 99 1
97 14 4
97 19 4
97 24 4
97 30 1
97 44 3
97 53 1
97 68 0
97 75 0
97 79 1
97 81 0
98 1 4
98 21 0
98 26 2
98 30 3
98 33 2
98 41 0
98 49 2
98 57 4
98 66 3
98 78 4
99 0 1
99 16 4
99 19 3
99 26 2
99 41 2
99 49 1
99 58 2
99 59 2
99 81 2
99 85 2
